c Random generated cnf formula, satisfiable: true
p cnf 10 50
-10 8 -4 0
3 6 -7 0
-7 5 4 0
-7 -8 -3 0
-5 1 -9 0
8 7 3 0
-8 -6 -1 0
10 -2 7 0
-5 -2 -3 0
10 -7 -9 0
1 -2 6 0
-4 2 8 0
1 -9 10 0
8 -7 -2 0
-10 7 -2 0
-10 8 6 0
7 -8 10 0
-8 10 1 0
7 -4 -9 0
8 -1 10 0
-4 3 -10 0
10 6 -8 0
-8 5 -4 0
-2 4 -3 0
-9 3 1 0
-8 10 -4 0
3 5 -7 0
5 1 6 0
-8 9 -2 0
4 -1 8 0
-1 -2 -6 0
-2 6 8 0
1 5 -3 0
-8 10 -2 0
3 7 8 0
3 -5 7 0
-2 -5 6 0
-9 3 1 0
7 6 -3 0
7 -5 -2 0
-8 2 3 0
-5 10 9 0
2 6 10 0
-3 10 -5 0
-4 1 -3 0
-9 10 -6 0
3 -10 -1 0
-8 3 -6 0
6 4 -9 0
1 3 4 0
